Minimize
  - 17 y_0 - 5 y_1 - 25 y_2 - 5 y_3 - 13 y_5 - 26 y_6 - 18 y_7 - 23 y_8
   - 22 y_9 - 19 y_10 - 14 y_11 - 19 y_12 - 13 y_13 - 19 y_14 - 11 y_15
   - 24 y_16 - 15 y_17 - 21 y_18 - 18 y_19 + 37 x_0_6 + 3 x_0_7 + 15 x_0_17
   + 61 x_1_7 + 37 x_1_11 + 61 x_1_14 + 22 x_1_15 + 79 x_1_16 + 78 x_1_18
   + 100 x_2_4 + 48 x_2_5 + 37 x_2_6 + 59 x_2_11 + 64 x_2_15 + 52 x_2_19
   + 41 x_3_5 + 55 x_3_7 + 58 x_3_10 + 50 x_3_11 + 47 x_3_13 + 77 x_3_16
   + 54 x_4_5 + 73 x_4_7 + 93 x_4_8 + 89 x_4_9 + 74 x_4_10 + 60 x_4_17
   + 64 x_5_6 + 68 x_5_10 + 38 x_5_12 + 30 x_5_19 + 12 x_6_8 + 72 x_6_9
   + 82 x_6_11 + 28 x_6_14 + 46 x_6_18 + 28 x_7_10 + 67 x_7_11 + 15 x_7_14
   + 60 x_7_15 + 18 x_8_14 + 36 x_8_18 + 98 x_9_10 + 45 x_10_12
   + 20 x_10_17 + 59 x_11_12 + 59 x_11_14 + 60 x_12_13 + 17 x_12_16
   + 60 x_13_14 + 54 x_14_15 + 19 x_14_16 + 68 x_15_16 + 47 x_16_17
   + 48 x_16_18 + 57 x_17_15 + 98 x_18_19 + 327 Constant
Subject To
 c_0: y_18 = 1
 c_1_0: y_0 + y_7 >= 1
 c_1_1: y_1 >= 1
 c_1_2: y_2 >= 1
 c_1_3: y_3 >= 1
 c_1_4: y_4 >= 1
 c_1_5: y_5 >= 1
 c_1_6: y_6 >= 1
 c_1_7: y_0 + y_7 >= 1
 c_1_8: y_8 >= 1
 c_1_9: y_9 >= 1
 c_1_10: y_10 >= 1
 c_1_11: y_11 + y_13 >= 1
 c_1_12: y_12 + y_14 >= 1
 c_1_13: y_11 + y_13 >= 1
 c_1_14: y_12 + y_14 >= 1
 c_1_15: y_15 >= 1
 c_1_16: y_16 >= 1
 c_1_17: y_17 >= 1
 c_1_18: y_18 >= 1
 c_1_19: y_19 >= 1
 c_2_0: - 2 y_0 + x_0_6 + x_0_7 + x_0_17 = 0
 c_2_1: - 2 y_1 + x_1_7 + x_1_11 + x_1_14 + x_1_15 + x_1_16 + x_1_18 = 0
 c_2_2: - 2 y_2 + x_2_4 + x_2_5 + x_2_6 + x_2_11 + x_2_15 + x_2_19 = 0
 c_2_3: - 2 y_3 + x_3_5 + x_3_7 + x_3_10 + x_3_11 + x_3_13 + x_3_16 = 0
 c_2_4: - 2 y_4 + x_2_4 + x_4_5 + x_4_7 + x_4_8 + x_4_9 + x_4_10 + x_4_17
   = 0
 c_2_5: - 2 y_5 + x_2_5 + x_3_5 + x_4_5 + x_5_6 + x_5_10 + x_5_12 + x_5_19
   = 0
 c_2_6: - 2 y_6 + x_0_6 + x_2_6 + x_5_6 + x_6_8 + x_6_9 + x_6_11 + x_6_14
   + x_6_18 = 0
 c_2_7: - 2 y_7 + x_0_7 + x_1_7 + x_3_7 + x_4_7 + x_7_10 + x_7_11 + x_7_14
   + x_7_15 = 0
 c_2_8: - 2 y_8 + x_4_8 + x_6_8 + x_8_14 + x_8_18 = 0
 c_2_9: - 2 y_9 + x_4_9 + x_6_9 + x_9_10 = 0
 c_2_10: - 2 y_10 + x_3_10 + x_4_10 + x_5_10 + x_7_10 + x_9_10 + x_10_12
   + x_10_17 = 0
 c_2_11: - 2 y_11 + x_1_11 + x_2_11 + x_3_11 + x_6_11 + x_7_11 + x_11_12
   + x_11_14 = 0
 c_2_12: - 2 y_12 + x_5_12 + x_10_12 + x_11_12 + x_12_13 + x_12_16 = 0
 c_2_13: - 2 y_13 + x_3_13 + x_12_13 + x_13_14 = 0
 c_2_14: - 2 y_14 + x_1_14 + x_6_14 + x_7_14 + x_8_14 + x_11_14 + x_13_14
   + x_14_15 + x_14_16 = 0
 c_2_15: - 2 y_15 + x_1_15 + x_2_15 + x_7_15 + x_14_15 + x_15_16 + x_17_15
   = 0
 c_2_16: - 2 y_16 + x_1_16 + x_3_16 + x_12_16 + x_14_16 + x_15_16 + x_16_17
   + x_16_18 = 0
 c_2_17: - 2 y_17 + x_0_17 + x_4_17 + x_10_17 + x_16_17 + x_17_15 = 0
 c_2_18: - 2 y_18 + x_1_18 + x_6_18 + x_8_18 + x_16_18 + x_18_19 = 0
 c_2_19: - 2 y_19 + x_2_19 + x_5_19 + x_18_19 = 0
Bounds
 Constant = 1
Binaries
 y_0 y_1 y_2 y_3 y_4 y_5 y_6 y_7 y_8 y_9 y_10 y_11 y_12 y_13 y_14 y_15 y_16
 y_17 y_18 y_19 x_0_6 x_0_7 x_0_17 x_1_7 x_1_11 x_1_14 x_1_15 x_1_16 x_1_18
 x_2_4 x_2_5 x_2_6 x_2_11 x_2_15 x_2_19 x_3_5 x_3_7 x_3_10 x_3_11 x_3_13
 x_3_16 x_4_5 x_4_7 x_4_8 x_4_9 x_4_10 x_4_17 x_5_6 x_5_10 x_5_12 x_5_19
 x_6_8 x_6_9 x_6_11 x_6_14 x_6_18 x_7_10 x_7_11 x_7_14 x_7_15 x_8_14 x_8_18
 x_9_10 x_10_12 x_10_17 x_11_12 x_11_14 x_12_13 x_12_16 x_13_14 x_14_15
 x_14_16 x_15_16 x_16_17 x_16_18 x_17_15 x_18_19
End
